1098970189892078742502,8,1,2,012,4,1,2,013,9,1,2,04,2,1,2,011,10,1,2,01,1,1,2,03,4,1,2,05,9,1,2,015,2,1,2,02,3,1,2,011,8,1,2,05,9,1,2,02,3,1,2,07,1,1,2,02,10,1,2,015,4,1,2,013,8,1,2,01,7,1,2,011,10,1,2,03,15,1,2,015,11,1,2,07,7,1,2,013,6,1,2,07,4,1,2,014,5,1,2,03,5,1,2,04,4,1,2,014,10,1,2,04,1,1,2,015,1,1,2,07,14,1,2,03,3,1,2,011,10,1,2,03,14,1,2,015,12,1,2,013,8,1,2,07,1,1,2,02,4,1,2,014,5,1,2,04,15,1,2,010,4,1,2,012,8,1,2,06,14,1,2,010,10,1,2,09,2,1,2,05,2,1,2,015,10,1,2,06,6,1,2,03,8,1,2,02,15,1,2,0